<?xml version = "1.0" standalone="yes"?>
<!-- This file has been generated by DOcplex version 2.23.222  -->
<CPLEXSolution version="1.0">
 <header
   problemName="CVRP"
   objectiveValue="15253.3"
  />
 <variables>
  <variable name="x_0_1" index="0" value="1.00000"/>
  <variable name="x_0_2" index="1" value="1.00000"/>
  <variable name="x_0_4" index="3" value="1.00000"/>
  <variable name="x_0_7" index="6" value="1.00000"/>
  <variable name="x_0_8" index="7" value="1.00000"/>
  <variable name="x_0_10" index="9" value="1.00000"/>
  <variable name="x_0_14" index="13" value="1.00000"/>
  <variable name="x_0_15" index="14" value="1.00000"/>
  <variable name="x_0_16" index="15" value="1.00000"/>
  <variable name="x_0_18" index="17" value="1.00000"/>
  <variable name="x_0_19" index="18" value="1.00000"/>
  <variable name="x_0_20" index="19" value="1.00000"/>
  <variable name="x_1_21" index="43" value="1.00000"/>
  <variable name="x_2_11" index="56" value="1.00000"/>
  <variable name="x_3_0" index="69" value="1.00000"/>
  <variable name="x_4_3" index="95" value="1.00000"/>
  <variable name="x_5_0" index="115" value="1.00000"/>
  <variable name="x_6_5" index="143" value="1.00000"/>
  <variable name="x_7_0" index="161" value="1.00000"/>
  <variable name="x_8_0" index="184" value="1.00000"/>
  <variable name="x_9_22" index="228" value="1.00000"/>
  <variable name="x_10_0" index="230" value="1.00000"/>
  <variable name="x_11_0" index="253" value="1.00000"/>
  <variable name="x_12_0" index="276" value="1.00000"/>
  <variable name="x_13_0" index="299" value="1.00000"/>
  <variable name="x_14_9" index="331" value="1.00000"/>
  <variable name="x_15_23" index="367" value="1.00000"/>
  <variable name="x_16_17" index="384" value="1.00000"/>
  <variable name="x_17_0" index="391" value="1.00000"/>
  <variable name="x_18_6" index="420" value="1.00000"/>
  <variable name="x_19_13" index="450" value="1.00000"/>
  <variable name="x_20_0" index="460" value="1.00000"/>
  <variable name="x_21_0" index="483" value="1.00000"/>
  <variable name="x_22_12" index="518" value="1.00000"/>
  <variable name="x_23_0" index="529" value="1.00000"/>
  <variable name="u_1" index="552" value="15.00000"/>
  <variable name="u_2" index="553" value="42.00000"/>
  <variable name="u_3" index="554" value="44.00000"/>
  <variable name="u_4" index="555" value="38.00000"/>
  <variable name="u_5" index="556" value="52.00000"/>
  <variable name="u_6" index="557" value="21.00000"/>
  <variable name="u_7" index="558" value="47.00000"/>
  <variable name="u_8" index="559" value="47.00000"/>
  <variable name="u_9" index="560" value="6.00000"/>
  <variable name="u_10" index="561" value="42.00000"/>
  <variable name="u_11" index="562" value="52.00000"/>
  <variable name="u_12" index="563" value="52.00000"/>
  <variable name="u_13" index="564" value="50.00000"/>
  <variable name="u_14" index="565" value="5.00000"/>
  <variable name="u_15" index="566" value="3.00000"/>
  <variable name="u_16" index="567" value="12.00000"/>
  <variable name="u_17" index="568" value="51.00000"/>
  <variable name="u_18" index="569" value="9.00000"/>
  <variable name="u_19" index="570" value="31.00000"/>
  <variable name="u_20" index="571" value="52.00000"/>
  <variable name="u_21" index="572" value="50.00000"/>
  <variable name="u_22" index="573" value="24.00000"/>
  <variable name="u_23" index="574" value="52.00000"/>
 </variables>
</CPLEXSolution>
